; Options: -q --produce-models --incremental --print-success --lang smt2.6 --arrays-exp
(set-logic ALL)

(declare-fun start!1185 () Bool)

(assert start!1185)

(declare-fun res!4463 () Bool)

(declare-fun e!2876 () Bool)

(assert (=> start!1185 (=> (not res!4463) (not e!2876))))

(declare-fun jz!70 () (_ BitVec 32))

(declare-datatypes ((array!442 0))(
  ( (array!443 (arr!194 (Array (_ BitVec 32) (_ FloatingPoint 11 53))) (size!194 (_ BitVec 32))) )
))
(declare-fun qq!74 () array!442)

(assert (=> start!1185 (= res!4463 (and (bvsle #b00000000000000000000000000000000 jz!70) (bvslt jz!70 #b00000000000000000000000000010100) (= (size!194 qq!74) #b00000000000000000000000000010100)))))

(assert (=> start!1185 e!2876))

(assert (=> start!1185 true))

(declare-fun array_inv!144 (array!442) Bool)

(assert (=> start!1185 (array_inv!144 qq!74)))

(declare-fun fq!78 () array!442)

(assert (=> start!1185 (array_inv!144 fq!78)))

(declare-fun b!5614 () Bool)

(declare-fun res!4464 () Bool)

(assert (=> b!5614 (=> (not res!4464) (not e!2876))))

(declare-fun qqInv!0 (array!442) Bool)

(assert (=> b!5614 (= res!4464 (qqInv!0 qq!74))))

(declare-fun b!5615 () Bool)

(declare-fun res!4466 () Bool)

(assert (=> b!5615 (=> (not res!4466) (not e!2876))))

(declare-fun i!327 () (_ BitVec 32))

(assert (=> b!5615 (= res!4466 (and (fp.leq (fp #b0 #b00000000000 #b0000000000000000000000000000000000000000000000000000) (select (store ((as const (Array (_ BitVec 32) (_ FloatingPoint 11 53))) (fp #b0 #b00000000000 #b0000000000000000000000000000000000000000000000000000)) #b00000000000000000000000000000000 (fp.mul roundNearestTiesToEven (fp #b0 #b01111111111 #b1001001000011111101101000000000000000000000000000000) (select (arr!194 qq!74) #b00000000000000000000000000000000))) #b00000000000000000000000000000000)) (fp.leq (select (store ((as const (Array (_ BitVec 32) (_ FloatingPoint 11 53))) (fp #b0 #b00000000000 #b0000000000000000000000000000000000000000000000000000)) #b00000000000000000000000000000000 (fp.mul roundNearestTiesToEven (fp #b0 #b01111111111 #b1001001000011111101101000000000000000000000000000000) (select (arr!194 qq!74) #b00000000000000000000000000000000))) #b00000000000000000000000000000000) (fp #b0 #b01111111110 #b1001001000011111101100001101101111000000100110000000)) (fp.leq (fp #b0 #b00000000000 #b0000000000000000000000000000000000000000000000000000) (select (store (store ((as const (Array (_ BitVec 32) (_ FloatingPoint 11 53))) (fp #b0 #b00000000000 #b0000000000000000000000000000000000000000000000000000)) #b00000000000000000000000000000000 (fp.mul roundNearestTiesToEven (fp #b0 #b01111111111 #b1001001000011111101101000000000000000000000000000000) (select (arr!194 qq!74) #b00000000000000000000000000000000))) #b00000000000000000000000000000001 (fp.add roundNearestTiesToEven (fp.mul roundNearestTiesToEven (fp #b0 #b01111111111 #b1001001000011111101101000000000000000000000000000000) (select (arr!194 qq!74) #b00000000000000000000000000000001)) (fp.mul roundNearestTiesToEven (fp #b0 #b01111100111 #b0100010001000010110100000000000000000000000000000000) (select (arr!194 qq!74) #b00000000000000000000000000000000)))) #b00000000000000000000000000000001)) (fp.leq (select (store (store ((as const (Array (_ BitVec 32) (_ FloatingPoint 11 53))) (fp #b0 #b00000000000 #b0000000000000000000000000000000000000000000000000000)) #b00000000000000000000000000000000 (fp.mul roundNearestTiesToEven (fp #b0 #b01111111111 #b1001001000011111101101000000000000000000000000000000) (select (arr!194 qq!74) #b00000000000000000000000000000000))) #b00000000000000000000000000000001 (fp.add roundNearestTiesToEven (fp.mul roundNearestTiesToEven (fp #b0 #b01111111111 #b1001001000011111101101000000000000000000000000000000) (select (arr!194 qq!74) #b00000000000000000000000000000001)) (fp.mul roundNearestTiesToEven (fp #b0 #b01111100111 #b0100010001000010110100000000000000000000000000000000) (select (arr!194 qq!74) #b00000000000000000000000000000000)))) #b00000000000000000000000000000001) (fp #b0 #b01111101000 #b0001101000100000100011001001010011001110101111100000)) (fp.leq (fp #b0 #b00000000000 #b0000000000000000000000000000000000000000000000000000) (select (store (store (store ((as const (Array (_ BitVec 32) (_ FloatingPoint 11 53))) (fp #b0 #b00000000000 #b0000000000000000000000000000000000000000000000000000)) #b00000000000000000000000000000000 (fp.mul roundNearestTiesToEven (fp #b0 #b01111111111 #b1001001000011111101101000000000000000000000000000000) (select (arr!194 qq!74) #b00000000000000000000000000000000))) #b00000000000000000000000000000001 (fp.add roundNearestTiesToEven (fp.mul roundNearestTiesToEven (fp #b0 #b01111111111 #b1001001000011111101101000000000000000000000000000000) (select (arr!194 qq!74) #b00000000000000000000000000000001)) (fp.mul roundNearestTiesToEven (fp #b0 #b01111100111 #b0100010001000010110100000000000000000000000000000000) (select (arr!194 qq!74) #b00000000000000000000000000000000)))) #b00000000000000000000000000000010 (fp.add roundNearestTiesToEven (fp.add roundNearestTiesToEven (fp.mul roundNearestTiesToEven (fp #b0 #b01111111111 #b1001001000011111101101000000000000000000000000000000) (select (arr!194 qq!74) #b00000000000000000000000000000010)) (fp.mul roundNearestTiesToEven (fp #b0 #b01111100111 #b0100010001000010110100000000000000000000000000000000) (select (arr!194 qq!74) #b00000000000000000000000000000001))) (fp.mul roundNearestTiesToEven (fp #b0 #b01111001111 #b1000010001101001100010000000000000000000000000000000) (select (arr!194 qq!74) #b00000000000000000000000000000000)))) #b00000000000000000000000000000010)) (fp.leq (select (store (store (store ((as const (Array (_ BitVec 32) (_ FloatingPoint 11 53))) (fp #b0 #b00000000000 #b0000000000000000000000000000000000000000000000000000)) #b00000000000000000000000000000000 (fp.mul roundNearestTiesToEven (fp #b0 #b01111111111 #b1001001000011111101101000000000000000000000000000000) (select (arr!194 qq!74) #b00000000000000000000000000000000))) #b00000000000000000000000000000001 (fp.add roundNearestTiesToEven (fp.mul roundNearestTiesToEven (fp #b0 #b01111111111 #b1001001000011111101101000000000000000000000000000000) (select (arr!194 qq!74) #b00000000000000000000000000000001)) (fp.mul roundNearestTiesToEven (fp #b0 #b01111100111 #b0100010001000010110100000000000000000000000000000000) (select (arr!194 qq!74) #b00000000000000000000000000000000)))) #b00000000000000000000000000000010 (fp.add roundNearestTiesToEven (fp.add roundNearestTiesToEven (fp.mul roundNearestTiesToEven (fp #b0 #b01111111111 #b1001001000011111101101000000000000000000000000000000) (select (arr!194 qq!74) #b00000000000000000000000000000010)) (fp.mul roundNearestTiesToEven (fp #b0 #b01111100111 #b0100010001000010110100000000000000000000000000000000) (select (arr!194 qq!74) #b00000000000000000000000000000001))) (fp.mul roundNearestTiesToEven (fp #b0 #b01111001111 #b1000010001101001100010000000000000000000000000000000) (select (arr!194 qq!74) #b00000000000000000000000000000000)))) #b00000000000000000000000000000010) (fp #b0 #b01111010000 #b1100110001001011101000011101001010011001111110100000)) (fp.leq (fp #b0 #b00000000000 #b0000000000000000000000000000000000000000000000000000) (select (store (store (store (store ((as const (Array (_ BitVec 32) (_ FloatingPoint 11 53))) (fp #b0 #b00000000000 #b0000000000000000000000000000000000000000000000000000)) #b00000000000000000000000000000000 (fp.mul roundNearestTiesToEven (fp #b0 #b01111111111 #b1001001000011111101101000000000000000000000000000000) (select (arr!194 qq!74) #b00000000000000000000000000000000))) #b00000000000000000000000000000001 (fp.add roundNearestTiesToEven (fp.mul roundNearestTiesToEven (fp #b0 #b01111111111 #b1001001000011111101101000000000000000000000000000000) (select (arr!194 qq!74) #b00000000000000000000000000000001)) (fp.mul roundNearestTiesToEven (fp #b0 #b01111100111 #b0100010001000010110100000000000000000000000000000000) (select (arr!194 qq!74) #b00000000000000000000000000000000)))) #b00000000000000000000000000000010 (fp.add roundNearestTiesToEven (fp.add roundNearestTiesToEven (fp.mul roundNearestTiesToEven (fp #b0 #b01111111111 #b1001001000011111101101000000000000000000000000000000) (select (arr!194 qq!74) #b00000000000000000000000000000010)) (fp.mul roundNearestTiesToEven (fp #b0 #b01111100111 #b0100010001000010110100000000000000000000000000000000) (select (arr!194 qq!74) #b00000000000000000000000000000001))) (fp.mul roundNearestTiesToEven (fp #b0 #b01111001111 #b1000010001101001100010000000000000000000000000000000) (select (arr!194 qq!74) #b00000000000000000000000000000000)))) #b00000000000000000000000000000011 (fp.add roundNearestTiesToEven (fp.add roundNearestTiesToEven (fp.add roundNearestTiesToEven (fp.mul roundNearestTiesToEven (fp #b0 #b01111111111 #b1001001000011111101101000000000000000000000000000000) (select (arr!194 qq!74) #b00000000000000000000000000000011)) (fp.mul roundNearestTiesToEven (fp #b0 #b01111100111 #b0100010001000010110100000000000000000000000000000000) (select (arr!194 qq!74) #b00000000000000000000000000000010))) (fp.mul roundNearestTiesToEven (fp #b0 #b01111001111 #b1000010001101001100010000000000000000000000000000000) (select (arr!194 qq!74) #b00000000000000000000000000000001))) (fp.mul roundNearestTiesToEven (fp #b0 #b01110110111 #b1000110011000101000101100000000000000000000000000000) (select (arr!194 qq!74) #b00000000000000000000000000000000)))) #b00000000000000000000000000000011)) (fp.leq (select (store (store (store (store ((as const (Array (_ BitVec 32) (_ FloatingPoint 11 53))) (fp #b0 #b00000000000 #b0000000000000000000000000000000000000000000000000000)) #b00000000000000000000000000000000 (fp.mul roundNearestTiesToEven (fp #b0 #b01111111111 #b1001001000011111101101000000000000000000000000000000) (select (arr!194 qq!74) #b00000000000000000000000000000000))) #b00000000000000000000000000000001 (fp.add roundNearestTiesToEven (fp.mul roundNearestTiesToEven (fp #b0 #b01111111111 #b1001001000011111101101000000000000000000000000000000) (select (arr!194 qq!74) #b00000000000000000000000000000001)) (fp.mul roundNearestTiesToEven (fp #b0 #b01111100111 #b0100010001000010110100000000000000000000000000000000) (select (arr!194 qq!74) #b00000000000000000000000000000000)))) #b00000000000000000000000000000010 (fp.add roundNearestTiesToEven (fp.add roundNearestTiesToEven (fp.mul roundNearestTiesToEven (fp #b0 #b01111111111 #b1001001000011111101101000000000000000000000000000000) (select (arr!194 qq!74) #b00000000000000000000000000000010)) (fp.mul roundNearestTiesToEven (fp #b0 #b01111100111 #b0100010001000010110100000000000000000000000000000000) (select (arr!194 qq!74) #b00000000000000000000000000000001))) (fp.mul roundNearestTiesToEven (fp #b0 #b01111001111 #b1000010001101001100010000000000000000000000000000000) (select (arr!194 qq!74) #b00000000000000000000000000000000)))) #b00000000000000000000000000000011 (fp.add roundNearestTiesToEven (fp.add roundNearestTiesToEven (fp.add roundNearestTiesToEven (fp.mul roundNearestTiesToEven (fp #b0 #b01111111111 #b1001001000011111101101000000000000000000000000000000) (select (arr!194 qq!74) #b00000000000000000000000000000011)) (fp.mul roundNearestTiesToEven (fp #b0 #b01111100111 #b0100010001000010110100000000000000000000000000000000) (select (arr!194 qq!74) #b00000000000000000000000000000010))) (fp.mul roundNearestTiesToEven (fp #b0 #b01111001111 #b1000010001101001100010000000000000000000000000000000) (select (arr!194 qq!74) #b00000000000000000000000000000001))) (fp.mul roundNearestTiesToEven (fp #b0 #b01110110111 #b1000110011000101000101100000000000000000000000000000) (select (arr!194 qq!74) #b00000000000000000000000000000000)))) #b00000000000000000000000000000011) (fp #b0 #b01110111001 #b0100100001001011101001000100011000011011101101111000)) (bvsle #b00000000000000000000000000000100 i!327) (bvsle i!327 jz!70) (= (size!194 fq!78) #b00000000000000000000000000010100)))))

(declare-fun b!5616 () Bool)

(declare-fun res!4465 () Bool)

(assert (=> b!5616 (=> (not res!4465) (not e!2876))))

(declare-fun fqInv!0 (array!442) Bool)

(assert (=> b!5616 (= res!4465 (fqInv!0 fq!78))))

(declare-fun b!5617 () Bool)

(assert (=> b!5617 (= e!2876 (and (bvslt i!327 jz!70) (let ((fw0!4 (fp.mul roundNearestTiesToEven (fp #b0 #b01111111111 #b1001001000011111101101000000000000000000000000000000) (select (arr!194 qq!74) i!327)))) (let ((fw1!4 (fp.mul roundNearestTiesToEven (fp #b0 #b01111100111 #b0100010001000010110100000000000000000000000000000000) (select (arr!194 qq!74) (bvsub i!327 #b00000000000000000000000000000001))))) (and (fp.leq (fp #b0 #b00000000000 #b0000000000000000000000000000000000000000000000000000) fw0!4) (fp.leq fw0!4 (fp.mul roundNearestTiesToEven (fp #b0 #b01111111111 #b1001001000011111101101000000000000000000000000000000) (select (store (store (store (store (store (store (store (store (store (store (store (store (store (store (store (store (store (store (store (store ((as const (Array (_ BitVec 32) (_ FloatingPoint 11 53))) (fp #b0 #b00000000000 #b0000000000000000000000000000000000000000000000000000)) #b00000000000000000000000000000000 (fp #b0 #b01111111101 #b1111111111111111111111000000000000000000000000000000)) #b00000000000000000000000000000001 (fp #b0 #b01111100110 #b1111111111111111111111100000000000000000000000000000)) #b00000000000000000000000000001010 (fp #b0 #b01100001110 #b1111111111111111111111100000000000000000000000000000)) #b00000000000000000000000000001011 (fp #b0 #b01011110110 #b1111111111111111111111100000000000000000000000000000)) #b00000000000000000000000000001100 (fp #b0 #b01011011110 #b1111111111111111111111100000000000000000000000000000)) #b00000000000000000000000000001101 (fp #b0 #b01011000110 #b1111111111111111111111100000000000000000000000000000)) #b00000000000000000000000000001110 (fp #b0 #b01010101110 #b1111111111111111111111100000000000000000000000000000)) #b00000000000000000000000000001111 (fp #b0 #b01010010110 #b1111111111111111111111100000000000000000000000000000)) #b00000000000000000000000000010000 (fp #b0 #b01001111110 #b1111111111111111111111100000000000000000000000000000)) #b00000000000000000000000000010001 (fp #b0 #b01001100110 #b1111111111111111111111100000000000000000000000000000)) #b00000000000000000000000000010010 (fp #b0 #b01001001110 #b1111111111111111111111100000000000000000000000000000)) #b00000000000000000000000000010011 (fp #b0 #b01000110110 #b1111111111111111111111100000000000000000000000000000)) #b00000000000000000000000000000010 (fp #b0 #b01111001110 #b1111111111111111111111100000000000000000000000000000)) #b00000000000000000000000000000011 (fp #b0 #b01110110110 #b1111111111111111111111100000000000000000000000000000)) #b00000000000000000000000000000100 (fp #b0 #b01110011110 #b1111111111111111111111100000000000000000000000000000)) #b00000000000000000000000000000101 (fp #b0 #b01110000110 #b1111111111111111111111100000000000000000000000000000)) #b00000000000000000000000000000110 (fp #b0 #b01101101110 #b1111111111111111111111100000000000000000000000000000)) #b00000000000000000000000000000111 (fp #b0 #b01101010110 #b1111111111111111111111100000000000000000000000000000)) #b00000000000000000000000000001000 (fp #b0 #b01100111110 #b1111111111111111111111100000000000000000000000000000)) #b00000000000000000000000000001001 (fp #b0 #b01100100110 #b1111111111111111111111100000000000000000000000000000)) i!327))) (or (not (fp.leq (fp #b0 #b00000000000 #b0000000000000000000000000000000000000000000000000000) fw1!4)) (not (fp.leq fw1!4 (fp.mul roundNearestTiesToEven (fp #b0 #b01111100111 #b0100010001000010110100000000000000000000000000000000) (select (store (store (store (store (store (store (store (store (store (store (store (store (store (store (store (store (store (store (store (store ((as const (Array (_ BitVec 32) (_ FloatingPoint 11 53))) (fp #b0 #b00000000000 #b0000000000000000000000000000000000000000000000000000)) #b00000000000000000000000000000000 (fp #b0 #b01111111101 #b1111111111111111111111000000000000000000000000000000)) #b00000000000000000000000000000001 (fp #b0 #b01111100110 #b1111111111111111111111100000000000000000000000000000)) #b00000000000000000000000000001010 (fp #b0 #b01100001110 #b1111111111111111111111100000000000000000000000000000)) #b00000000000000000000000000001011 (fp #b0 #b01011110110 #b1111111111111111111111100000000000000000000000000000)) #b00000000000000000000000000001100 (fp #b0 #b01011011110 #b1111111111111111111111100000000000000000000000000000)) #b00000000000000000000000000001101 (fp #b0 #b01011000110 #b1111111111111111111111100000000000000000000000000000)) #b00000000000000000000000000001110 (fp #b0 #b01010101110 #b1111111111111111111111100000000000000000000000000000)) #b00000000000000000000000000001111 (fp #b0 #b01010010110 #b1111111111111111111111100000000000000000000000000000)) #b00000000000000000000000000010000 (fp #b0 #b01001111110 #b1111111111111111111111100000000000000000000000000000)) #b00000000000000000000000000010001 (fp #b0 #b01001100110 #b1111111111111111111111100000000000000000000000000000)) #b00000000000000000000000000010010 (fp #b0 #b01001001110 #b1111111111111111111111100000000000000000000000000000)) #b00000000000000000000000000010011 (fp #b0 #b01000110110 #b1111111111111111111111100000000000000000000000000000)) #b00000000000000000000000000000010 (fp #b0 #b01111001110 #b1111111111111111111111100000000000000000000000000000)) #b00000000000000000000000000000011 (fp #b0 #b01110110110 #b1111111111111111111111100000000000000000000000000000)) #b00000000000000000000000000000100 (fp #b0 #b01110011110 #b1111111111111111111111100000000000000000000000000000)) #b00000000000000000000000000000101 (fp #b0 #b01110000110 #b1111111111111111111111100000000000000000000000000000)) #b00000000000000000000000000000110 (fp #b0 #b01101101110 #b1111111111111111111111100000000000000000000000000000)) #b00000000000000000000000000000111 (fp #b0 #b01101010110 #b1111111111111111111111100000000000000000000000000000)) #b00000000000000000000000000001000 (fp #b0 #b01100111110 #b1111111111111111111111100000000000000000000000000000)) #b00000000000000000000000000001001 (fp #b0 #b01100100110 #b1111111111111111111111100000000000000000000000000000)) (bvsub i!327 #b00000000000000000000000000000001)))))))))))))

(assert (= (and start!1185 res!4463) b!5614))

(assert (= (and b!5614 res!4464) b!5615))

(assert (= (and b!5615 res!4466) b!5616))

(assert (= (and b!5616 res!4465) b!5617))

(declare-fun m!9647 () Bool)

(assert (=> b!5615 m!9647))

(declare-fun m!9649 () Bool)

(assert (=> b!5615 m!9649))

(declare-fun m!9651 () Bool)

(assert (=> b!5615 m!9651))

(declare-fun m!9653 () Bool)

(assert (=> b!5615 m!9653))

(declare-fun m!9655 () Bool)

(assert (=> b!5615 m!9655))

(declare-fun m!9657 () Bool)

(assert (=> b!5615 m!9657))

(declare-fun m!9659 () Bool)

(assert (=> b!5615 m!9659))

(declare-fun m!9661 () Bool)

(assert (=> b!5615 m!9661))

(declare-fun m!9663 () Bool)

(assert (=> b!5615 m!9663))

(declare-fun m!9665 () Bool)

(assert (=> b!5615 m!9665))

(declare-fun m!9667 () Bool)

(assert (=> b!5615 m!9667))

(declare-fun m!9669 () Bool)

(assert (=> b!5615 m!9669))

(declare-fun m!9671 () Bool)

(assert (=> b!5616 m!9671))

(declare-fun m!9673 () Bool)

(assert (=> b!5617 m!9673))

(declare-fun m!9675 () Bool)

(assert (=> b!5617 m!9675))

(declare-fun m!9677 () Bool)

(assert (=> b!5617 m!9677))

(declare-fun m!9679 () Bool)

(assert (=> b!5617 m!9679))

(declare-fun m!9681 () Bool)

(assert (=> b!5614 m!9681))

(declare-fun m!9683 () Bool)

(assert (=> start!1185 m!9683))

(declare-fun m!9685 () Bool)

(assert (=> start!1185 m!9685))

(push 1)

(assert (not b!5616))

(assert (not b!5614))

(assert (not start!1185))

(check-sat)

(pop 1)

(push 1)

(check-sat)

(get-model)

(pop 1)

(declare-fun d!3518 () Bool)

(assert (=> d!3518 (= (fqInv!0 fq!78) (and (= (size!194 fq!78) #b00000000000000000000000000010100) (fp.leq (fp #b0 #b00000000000 #b0000000000000000000000000000000000000000000000000000) (select (arr!194 fq!78) #b00000000000000000000000000000000)) (fp.leq (select (arr!194 fq!78) #b00000000000000000000000000000000) (fp #b0 #b01111111110 #b1001001000011111101100001101101111000000100110000000)) (fp.leq (fp #b0 #b00000000000 #b0000000000000000000000000000000000000000000000000000) (select (arr!194 fq!78) #b00000000000000000000000000000001)) (fp.leq (select (arr!194 fq!78) #b00000000000000000000000000000001) (fp #b0 #b01111101000 #b0001101000100000100011001001010011001110101111100000)) (fp.leq (fp #b0 #b00000000000 #b0000000000000000000000000000000000000000000000000000) (select (arr!194 fq!78) #b00000000000000000000000000000010)) (fp.leq (select (arr!194 fq!78) #b00000000000000000000000000000010) (fp #b0 #b01111010000 #b1100110001001011101000011101001010011001111110100000)) (fp.leq (fp #b0 #b00000000000 #b0000000000000000000000000000000000000000000000000000) (select (arr!194 fq!78) #b00000000000000000000000000000011)) (fp.leq (select (arr!194 fq!78) #b00000000000000000000000000000011) (fp #b0 #b01110111001 #b0100100001001011101001000100011000011011101101111000)) (fp.leq (fp #b0 #b00000000000 #b0000000000000000000000000000000000000000000000000000) (select (arr!194 fq!78) #b00000000000000000000000000000100)) (fp.leq (select (arr!194 fq!78) #b00000000000000000000000000000100) (fp #b0 #b01110100001 #b1001101000011011010011011100010110101101101010011000)) (fp.leq (fp #b0 #b00000000000 #b0000000000000000000000000000000000000000000000000000) (select (arr!194 fq!78) #b00000000000000000000000000000101)) (fp.leq (select (arr!194 fq!78) #b00000000000000000000000000000101) (fp #b0 #b01110001001 #b1011101001010010010101001100010110101101101010011000)) (fp.leq (fp #b0 #b00000000000 #b0000000000000000000000000000000000000000000000000000) (select (arr!194 fq!78) #b00000000000000000000000000000110)) (fp.leq (select (arr!194 fq!78) #b00000000000000000000000000000110) (fp #b0 #b01101110001 #b1011101001010010010101001100010110101101101010011000)) (fp.leq (fp #b0 #b00000000000 #b0000000000000000000000000000000000000000000000000000) (select (arr!194 fq!78) #b00000000000000000000000000000111)) (fp.leq (select (arr!194 fq!78) #b00000000000000000000000000000111) (fp #b0 #b01101011001 #b1011101001010010010101001100010110101101101010011000)) (fp.leq (fp #b0 #b00000000000 #b0000000000000000000000000000000000000000000000000000) (select (arr!194 fq!78) #b00000000000000000000000000001000)) (fp.leq (select (arr!194 fq!78) #b00000000000000000000000000001000) (fp #b0 #b01101000001 #b1011101001010010010101001100010110101101101010011000)) (fp.leq (fp #b0 #b00000000000 #b0000000000000000000000000000000000000000000000000000) (select (arr!194 fq!78) #b00000000000000000000000000001001)) (fp.leq (select (arr!194 fq!78) #b00000000000000000000000000001001) (fp #b0 #b01100101001 #b1011101001010010010101001100010110101101101010011000)) (fp.leq (fp #b0 #b00000000000 #b0000000000000000000000000000000000000000000000000000) (select (arr!194 fq!78) #b00000000000000000000000000001010)) (fp.leq (select (arr!194 fq!78) #b00000000000000000000000000001010) (fp #b0 #b01100010001 #b1011101001010010010101001100010110101101101010011000)) (fp.leq (fp #b0 #b00000000000 #b0000000000000000000000000000000000000000000000000000) (select (arr!194 fq!78) #b00000000000000000000000000001011)) (fp.leq (select (arr!194 fq!78) #b00000000000000000000000000001011) (fp #b0 #b01011111001 #b1011101001010010010101001100010110101101101010011000)) (fp.leq (fp #b0 #b00000000000 #b0000000000000000000000000000000000000000000000000000) (select (arr!194 fq!78) #b00000000000000000000000000001100)) (fp.leq (select (arr!194 fq!78) #b00000000000000000000000000001100) (fp #b0 #b01011100001 #b1011101001010010010101001100010110101101101010011000)) (fp.leq (fp #b0 #b00000000000 #b0000000000000000000000000000000000000000000000000000) (select (arr!194 fq!78) #b00000000000000000000000000001101)) (fp.leq (select (arr!194 fq!78) #b00000000000000000000000000001101) (fp #b0 #b01011001001 #b1011101001010010010101001100010110101101101010011000)) (fp.leq (fp #b0 #b00000000000 #b0000000000000000000000000000000000000000000000000000) (select (arr!194 fq!78) #b00000000000000000000000000001110)) (fp.leq (select (arr!194 fq!78) #b00000000000000000000000000001110) (fp #b0 #b01010110001 #b1011101001010010010101001100010110101101101010011000)) (fp.leq (fp #b0 #b00000000000 #b0000000000000000000000000000000000000000000000000000) (select (arr!194 fq!78) #b00000000000000000000000000001111)) (fp.leq (select (arr!194 fq!78) #b00000000000000000000000000001111) (fp #b0 #b01010011001 #b1011101001010010010101001100010110101101101010011000)) (fp.leq (fp #b0 #b00000000000 #b0000000000000000000000000000000000000000000000000000) (select (arr!194 fq!78) #b00000000000000000000000000010000)) (fp.leq (select (arr!194 fq!78) #b00000000000000000000000000010000) (fp #b0 #b01010000001 #b1011101001010010010101001100010110101101101010011000)) (fp.leq (fp #b0 #b00000000000 #b0000000000000000000000000000000000000000000000000000) (select (arr!194 fq!78) #b00000000000000000000000000010001)) (fp.leq (select (arr!194 fq!78) #b00000000000000000000000000010001) (fp #b0 #b01001101001 #b1011101001010010010101001100010110101101101010011000)) (fp.leq (fp #b0 #b00000000000 #b0000000000000000000000000000000000000000000000000000) (select (arr!194 fq!78) #b00000000000000000000000000010010)) (fp.leq (select (arr!194 fq!78) #b00000000000000000000000000010010) (fp #b0 #b01001010001 #b1011101001010010010101001100010110101101101010011000)) (fp.leq (fp #b0 #b00000000000 #b0000000000000000000000000000000000000000000000000000) (select (arr!194 fq!78) #b00000000000000000000000000010011)) (fp.leq (select (arr!194 fq!78) #b00000000000000000000000000010011) (fp #b0 #b01000111001 #b1011101001010010010101001100010110101101101010011000))))))

(declare-fun bs!1558 () Bool)

(assert (= bs!1558 d!3518))

(declare-fun m!9687 () Bool)

(assert (=> bs!1558 m!9687))

(declare-fun m!9689 () Bool)

(assert (=> bs!1558 m!9689))

(declare-fun m!9691 () Bool)

(assert (=> bs!1558 m!9691))

(declare-fun m!9693 () Bool)

(assert (=> bs!1558 m!9693))

(declare-fun m!9695 () Bool)

(assert (=> bs!1558 m!9695))

(declare-fun m!9697 () Bool)

(assert (=> bs!1558 m!9697))

(declare-fun m!9699 () Bool)

(assert (=> bs!1558 m!9699))

(declare-fun m!9701 () Bool)

(assert (=> bs!1558 m!9701))

(declare-fun m!9703 () Bool)

(assert (=> bs!1558 m!9703))

(declare-fun m!9705 () Bool)

(assert (=> bs!1558 m!9705))

(declare-fun m!9707 () Bool)

(assert (=> bs!1558 m!9707))

(declare-fun m!9709 () Bool)

(assert (=> bs!1558 m!9709))

(declare-fun m!9711 () Bool)

(assert (=> bs!1558 m!9711))

(declare-fun m!9713 () Bool)

(assert (=> bs!1558 m!9713))

(declare-fun m!9715 () Bool)

(assert (=> bs!1558 m!9715))

(declare-fun m!9717 () Bool)

(assert (=> bs!1558 m!9717))

(declare-fun m!9719 () Bool)

(assert (=> bs!1558 m!9719))

(declare-fun m!9721 () Bool)

(assert (=> bs!1558 m!9721))

(declare-fun m!9723 () Bool)

(assert (=> bs!1558 m!9723))

(declare-fun m!9725 () Bool)

(assert (=> bs!1558 m!9725))

(assert (=> b!5616 d!3518))

(declare-fun d!3520 () Bool)

(assert (=> d!3520 (= (qqInv!0 qq!74) (and (= (size!194 qq!74) #b00000000000000000000000000010100) (fp.leq (fp #b0 #b00000000000 #b0000000000000000000000000000000000000000000000000000) (select (arr!194 qq!74) #b00000000000000000000000000000000)) (fp.leq (select (arr!194 qq!74) #b00000000000000000000000000000000) (fp #b0 #b01111111101 #b1111111111111111111111000000000000000000000000000000)) (fp.leq (fp #b0 #b00000000000 #b0000000000000000000000000000000000000000000000000000) (select (arr!194 qq!74) #b00000000000000000000000000000001)) (fp.leq (select (arr!194 qq!74) #b00000000000000000000000000000001) (fp #b0 #b01111100110 #b1111111111111111111111100000000000000000000000000000)) (fp.leq (fp #b0 #b00000000000 #b0000000000000000000000000000000000000000000000000000) (select (arr!194 qq!74) #b00000000000000000000000000000010)) (fp.leq (select (arr!194 qq!74) #b00000000000000000000000000000010) (fp #b0 #b01111001110 #b1111111111111111111111100000000000000000000000000000)) (fp.leq (fp #b0 #b00000000000 #b0000000000000000000000000000000000000000000000000000) (select (arr!194 qq!74) #b00000000000000000000000000000011)) (fp.leq (select (arr!194 qq!74) #b00000000000000000000000000000011) (fp #b0 #b01110110110 #b1111111111111111111111100000000000000000000000000000)) (fp.leq (fp #b0 #b00000000000 #b0000000000000000000000000000000000000000000000000000) (select (arr!194 qq!74) #b00000000000000000000000000000100)) (fp.leq (select (arr!194 qq!74) #b00000000000000000000000000000100) (fp #b0 #b01110011110 #b1111111111111111111111100000000000000000000000000000)) (fp.leq (fp #b0 #b00000000000 #b0000000000000000000000000000000000000000000000000000) (select (arr!194 qq!74) #b00000000000000000000000000000101)) (fp.leq (select (arr!194 qq!74) #b00000000000000000000000000000101) (fp #b0 #b01110000110 #b1111111111111111111111100000000000000000000000000000)) (fp.leq (fp #b0 #b00000000000 #b0000000000000000000000000000000000000000000000000000) (select (arr!194 qq!74) #b00000000000000000000000000000110)) (fp.leq (select (arr!194 qq!74) #b00000000000000000000000000000110) (fp #b0 #b01101101110 #b1111111111111111111111100000000000000000000000000000)) (fp.leq (fp #b0 #b00000000000 #b0000000000000000000000000000000000000000000000000000) (select (arr!194 qq!74) #b00000000000000000000000000000111)) (fp.leq (select (arr!194 qq!74) #b00000000000000000000000000000111) (fp #b0 #b01101010110 #b1111111111111111111111100000000000000000000000000000)) (fp.leq (fp #b0 #b00000000000 #b0000000000000000000000000000000000000000000000000000) (select (arr!194 qq!74) #b00000000000000000000000000001000)) (fp.leq (select (arr!194 qq!74) #b00000000000000000000000000001000) (fp #b0 #b01100111110 #b1111111111111111111111100000000000000000000000000000)) (fp.leq (fp #b0 #b00000000000 #b0000000000000000000000000000000000000000000000000000) (select (arr!194 qq!74) #b00000000000000000000000000001001)) (fp.leq (select (arr!194 qq!74) #b00000000000000000000000000001001) (fp #b0 #b01100100110 #b1111111111111111111111100000000000000000000000000000)) (fp.leq (fp #b0 #b00000000000 #b0000000000000000000000000000000000000000000000000000) (select (arr!194 qq!74) #b00000000000000000000000000001010)) (fp.leq (select (arr!194 qq!74) #b00000000000000000000000000001010) (fp #b0 #b01100001110 #b1111111111111111111111100000000000000000000000000000)) (fp.leq (fp #b0 #b00000000000 #b0000000000000000000000000000000000000000000000000000) (select (arr!194 qq!74) #b00000000000000000000000000001011)) (fp.leq (select (arr!194 qq!74) #b00000000000000000000000000001011) (fp #b0 #b01011110110 #b1111111111111111111111100000000000000000000000000000)) (fp.leq (fp #b0 #b00000000000 #b0000000000000000000000000000000000000000000000000000) (select (arr!194 qq!74) #b00000000000000000000000000001100)) (fp.leq (select (arr!194 qq!74) #b00000000000000000000000000001100) (fp #b0 #b01011011110 #b1111111111111111111111100000000000000000000000000000)) (fp.leq (fp #b0 #b00000000000 #b0000000000000000000000000000000000000000000000000000) (select (arr!194 qq!74) #b00000000000000000000000000001101)) (fp.leq (select (arr!194 qq!74) #b00000000000000000000000000001101) (fp #b0 #b01011000110 #b1111111111111111111111100000000000000000000000000000)) (fp.leq (fp #b0 #b00000000000 #b0000000000000000000000000000000000000000000000000000) (select (arr!194 qq!74) #b00000000000000000000000000001110)) (fp.leq (select (arr!194 qq!74) #b00000000000000000000000000001110) (fp #b0 #b01010101110 #b1111111111111111111111100000000000000000000000000000)) (fp.leq (fp #b0 #b00000000000 #b0000000000000000000000000000000000000000000000000000) (select (arr!194 qq!74) #b00000000000000000000000000001111)) (fp.leq (select (arr!194 qq!74) #b00000000000000000000000000001111) (fp #b0 #b01010010110 #b1111111111111111111111100000000000000000000000000000)) (fp.leq (fp #b0 #b00000000000 #b0000000000000000000000000000000000000000000000000000) (select (arr!194 qq!74) #b00000000000000000000000000010000)) (fp.leq (select (arr!194 qq!74) #b00000000000000000000000000010000) (fp #b0 #b01001111110 #b1111111111111111111111100000000000000000000000000000)) (fp.leq (fp #b0 #b00000000000 #b0000000000000000000000000000000000000000000000000000) (select (arr!194 qq!74) #b00000000000000000000000000010001)) (fp.leq (select (arr!194 qq!74) #b00000000000000000000000000010001) (fp #b0 #b01001100110 #b1111111111111111111111100000000000000000000000000000)) (fp.leq (fp #b0 #b00000000000 #b0000000000000000000000000000000000000000000000000000) (select (arr!194 qq!74) #b00000000000000000000000000010010)) (fp.leq (select (arr!194 qq!74) #b00000000000000000000000000010010) (fp #b0 #b01001001110 #b1111111111111111111111100000000000000000000000000000)) (fp.leq (fp #b0 #b00000000000 #b0000000000000000000000000000000000000000000000000000) (select (arr!194 qq!74) #b00000000000000000000000000010011)) (fp.leq (select (arr!194 qq!74) #b00000000000000000000000000010011) (fp #b0 #b01000110110 #b1111111111111111111111100000000000000000000000000000))))))

(declare-fun bs!1559 () Bool)

(assert (= bs!1559 d!3520))

(assert (=> bs!1559 m!9667))

(declare-fun m!9727 () Bool)

(assert (=> bs!1559 m!9727))

(declare-fun m!9729 () Bool)

(assert (=> bs!1559 m!9729))

(declare-fun m!9731 () Bool)

(assert (=> bs!1559 m!9731))

(declare-fun m!9733 () Bool)

(assert (=> bs!1559 m!9733))

(declare-fun m!9735 () Bool)

(assert (=> bs!1559 m!9735))

(declare-fun m!9737 () Bool)

(assert (=> bs!1559 m!9737))

(assert (=> bs!1559 m!9661))

(declare-fun m!9739 () Bool)

(assert (=> bs!1559 m!9739))

(assert (=> bs!1559 m!9669))

(declare-fun m!9741 () Bool)

(assert (=> bs!1559 m!9741))

(declare-fun m!9743 () Bool)

(assert (=> bs!1559 m!9743))

(declare-fun m!9745 () Bool)

(assert (=> bs!1559 m!9745))

(declare-fun m!9747 () Bool)

(assert (=> bs!1559 m!9747))

(declare-fun m!9749 () Bool)

(assert (=> bs!1559 m!9749))

(declare-fun m!9751 () Bool)

(assert (=> bs!1559 m!9751))

(assert (=> bs!1559 m!9657))

(declare-fun m!9753 () Bool)

(assert (=> bs!1559 m!9753))

(declare-fun m!9755 () Bool)

(assert (=> bs!1559 m!9755))

(declare-fun m!9757 () Bool)

(assert (=> bs!1559 m!9757))

(assert (=> b!5614 d!3520))

(declare-fun d!3522 () Bool)

(assert (=> d!3522 (= (array_inv!144 qq!74) (bvsge (size!194 qq!74) #b00000000000000000000000000000000))))

(assert (=> start!1185 d!3522))

(declare-fun d!3524 () Bool)

(assert (=> d!3524 (= (array_inv!144 fq!78) (bvsge (size!194 fq!78) #b00000000000000000000000000000000))))

(assert (=> start!1185 d!3524))

(push 1)

(check-sat)

(pop 1)

